2
4
40
1 1.3 1.55 1.75 2.1
15 41 6 42 17 37 36 31 30 44 40 16 20 43 22 32 6 14 17 23 8 38 5 46 43 38 6 36 30 40 19 40 15 5 15 49 9 12 11 18 8 29 30 6 48 8 46 14 45 8 41 11 31 38 16 30 24 21 47 44 19 35 10 45 39 9 36 23 40 32 7 30 21 40 7 10 34 29 14 40 14 22 43 47 27 11 15 37 36 25 5 34 43 45 24 12 49 10 31 39 48 45 13 18 25 22 44 40 30 12 12 10 13 17 7 24 26 30 49 37 33 10 36 35 27 22 12 9 11 40 39 46 42 18 31 23 41 40 27 10 28 40 42 26 30 7 31 29 42 10 22 14 14 34 48 5 7 14 34 42 